projected/problems_b25_r0_d7_m100_s666/_DIMACS/b25_d7_r0_s666_074.cnf
p cnf 328 649 24
c p show 1 2 3 4 5 6 7 8 9 10 11 12 13 14 15 16 17 18 19 20 21 22 23 24
-77 22 11 0
-78 18 -1 0
-79 78 77 0
-80 -18 0
-80 1 0
-81 -22 0
-81 -11 0
-82 81 80 0
-83 82 0
-83 79 0
-84 22 0
-84 2 0
-85 -22 0
-85 16 0
-86 85 0
-86 84 0
-87 86 83 0
-88 14 17 0
-89 -17 0
-89 21 0
-90 89 0
-90 88 0
-91 -18 0
-91 -6 0
-92 23 3 0
-93 92 91 0
-94 93 0
-94 90 0
-95 94 0
-95 87 0
-96 14 15 0
-97 17 0
-97 16 0
-98 97 0
-98 96 0
-99 16 0
-99 -21 0
-100 -10 0
-100 14 0
-101 100 0
-101 99 0
-102 101 0
-102 98 0
-103 -20 0
-103 -1 0
-104 24 0
-104 -2 0
-105 104 103 0
-106 1 -2 0
-107 15 0
-107 -12 0
-108 107 0
-108 106 0
-109 108 105 0
-110 109 0
-110 102 0
-111 20 1 0
-112 -24 2 0
-113 112 0
-113 111 0
-114 -1 0
-114 2 0
-115 -15 12 0
-116 115 114 0
-117 116 0
-117 113 0
-118 -14 0
-118 -15 0
-119 -17 -16 0
-120 119 118 0
-121 -16 21 0
-123 10 -14 0
-124 123 121 0
-125 124 120 0
-126 125 0
-126 117 0
-127 126 110 0
-129 127 95 0
-130 -16 0
-130 5 0
-131 -8 20 0
-132 131 130 0
-133 6 24 0
-135 6 0
-135 18 0
-136 135 133 0
-137 136 132 0
-138 2 0
-138 6 0
-139 -7 14 0
-141 139 138 0
-142 -9 0
-142 -4 0
-143 -13 10 0
-144 143 0
-144 142 0
-145 144 0
-145 141 0
-147 9 4 0
-148 13 0
-148 -10 0
-149 148 147 0
-150 -2 -6 0
-151 7 0
-151 -14 0
-153 151 0
-153 150 0
-154 153 0
-154 149 0
-155 154 145 0
-156 155 137 0
-157 -1 -19 0
-158 -19 10 0
-159 -10 19 0
-160 159 0
-160 158 0
-161 160 157 0
-162 14 0
-162 -4 0
-164 18 0
-164 -4 0
-165 164 0
-165 162 0
-166 165 161 0
-167 4 0
-167 19 0
-168 -23 -15 0
-169 168 167 0
-170 23 -4 0
-171 -8 0
-171 10 0
-172 171 0
-172 170 0
-173 172 169 0
-174 173 0
-174 166 0
-175 174 0
-175 156 0
-176 175 0
-176 129 0
-177 -17 0
-177 -21 0
-178 2 -10 0
-179 178 177 0
-180 14 0
-180 -19 0
-181 15 0
-181 -7 0
-182 7 0
-182 -15 0
-183 182 181 0
-184 183 180 0
-185 -15 7 0
-186 -7 15 0
-187 186 0
-187 185 0
-188 -14 19 0
-189 188 187 0
-190 189 0
-190 184 0
-191 190 179 0
-192 -2 -21 0
-193 -11 0
-193 12 0
-194 193 192 0
-195 15 -8 0
-196 18 0
-196 -2 0
-197 196 195 0
-198 197 194 0
-199 198 191 0
-200 -19 0
-200 8 0
-201 -12 0
-201 -10 0
-202 201 0
-202 200 0
-203 11 0
-203 -5 0
-204 -11 1 0
-205 204 0
-205 203 0
-206 11 0
-206 -1 0
-207 -11 5 0
-208 207 0
-208 206 0
-209 208 205 0
-210 209 202 0
-211 1 0
-211 11 0
-212 -20 -8 0
-213 212 0
-213 211 0
-214 23 0
-214 -3 0
-215 -3 22 0
-216 215 214 0
-217 216 213 0
-218 -23 3 0
-219 3 0
-219 -22 0
-220 219 0
-220 218 0
-221 -1 -11 0
-222 20 0
-222 8 0
-223 222 221 0
-224 223 220 0
-225 224 0
-225 217 0
-226 225 0
-226 210 0
-227 220 0
-227 223 0
-228 213 0
-228 216 0
-229 228 227 0
-230 19 -8 0
-231 12 10 0
-232 231 230 0
-233 206 207 0
-234 203 204 0
-235 234 0
-235 233 0
-236 235 0
-236 232 0
-237 236 0
-237 229 0
-238 237 226 0
-239 238 0
-239 199 0
-240 19 0
-241 17 0
-241 23 0
-242 -23 0
-242 -17 0
-243 242 241 0
-244 243 240 0
-245 -19 -5 0
-246 12 0
-246 16 0
-247 246 0
-247 245 0
-248 247 244 0
-249 -4 0
-249 -1 0
-250 20 0
-250 -22 0
-251 22 0
-251 -20 0
-252 251 250 0
-253 252 249 0
-254 4 0
-254 -18 0
-255 164 254 0
-256 19 9 0
-257 256 0
-257 255 0
-258 257 0
-258 253 0
-259 258 0
-259 248 0
-260 4 1 0
-261 -20 22 0
-262 -22 20 0
-263 262 0
-263 261 0
-264 263 0
-264 260 0
-265 -4 18 0
-266 -18 4 0
-267 266 0
-267 265 0
-268 -19 0
-268 -9 0
-269 268 267 0
-270 269 264 0
-271 -19 0
-272 -17 -23 0
-273 23 17 0
-274 273 0
-274 272 0
-275 274 0
-275 271 0
-276 19 0
-276 5 0
-277 -12 -16 0
-278 277 276 0
-279 278 0
-279 275 0
-280 279 0
-280 270 0
-281 280 259 0
-282 22 0
-282 6 0
-283 10 0
-283 3 0
-284 283 282 0
-285 22 8 0
-286 -2 5 0
-287 286 285 0
-288 287 0
-288 284 0
-289 9 0
-289 8 0
-290 13 -3 0
-291 290 0
-291 289 0
-292 -7 0
-292 5 0
-293 -23 -13 0
-294 293 292 0
-295 294 291 0
-296 295 0
-296 288 0
-297 296 0
-297 281 0
-298 297 0
-298 239 0
-299 298 0
-299 176 0
-300 17 21 0
-301 -2 0
-301 10 0
-302 301 0
-302 300 0
-303 187 0
-303 188 0
-304 180 0
-304 183 0
-305 304 303 0
-306 305 0
-306 302 0
-307 2 0
-307 21 0
-308 11 -12 0
-309 308 0
-309 307 0
-310 -15 0
-310 8 0
-311 -18 2 0
-312 311 0
-312 310 0
-313 312 0
-313 309 0
-314 313 0
-314 306 0
-315 229 236 0
-316 210 225 0
-317 316 0
-317 315 0
-318 317 314 0
-319 270 279 0
-320 248 258 0
-321 320 0
-321 319 0
-322 -22 -6 0
-323 -10 -3 0
-324 323 0
-324 322 0
-325 -22 0
-325 -8 0
-326 2 0
-326 -5 0
-327 326 0
-327 325 0
-328 327 324 0
-25 -9 -8 0
-122 -13 0
-122 3 0
-128 122 25 0
-134 7 -5 0
-140 23 0
-140 13 0
-146 140 0
-146 134 0
-152 146 0
-152 128 0
-26 152 328 0
-163 26 321 0
-27 163 318 0
-28 80 0
-28 81 0
-29 77 0
-29 78 0
-30 29 28 0
-31 -22 -2 0
-32 22 -16 0
-33 32 31 0
-34 33 0
-34 30 0
-35 -14 0
-35 -17 0
-36 17 -21 0
-37 36 35 0
-38 18 6 0
-39 -23 0
-39 -3 0
-40 39 0
-40 38 0
-41 40 37 0
-42 41 34 0
-43 117 125 0
-44 102 109 0
-45 44 0
-45 43 0
-46 45 0
-46 42 0
-47 16 -5 0
-48 8 0
-48 -20 0
-49 48 0
-49 47 0
-50 -6 0
-50 -24 0
-51 -6 -18 0
-52 51 0
-52 50 0
-53 52 0
-53 49 0
-54 149 153 0
-55 141 144 0
-56 55 0
-56 54 0
-57 56 0
-57 53 0
-58 1 0
-58 19 0
-59 19 0
-59 -10 0
-60 10 0
-60 -19 0
-61 60 59 0
-62 61 0
-62 58 0
-63 -14 4 0
-64 266 63 0
-65 64 0
-65 62 0
-66 -4 -19 0
-67 23 0
-67 15 0
-68 67 0
-68 66 0
-69 -23 0
-69 4 0
-70 8 -10 0
-71 70 69 0
-72 71 0
-72 68 0
-73 72 65 0
-74 73 57 0
-75 74 46 0
-76 75 0
-76 27 0
76 299 0
-177 -300 0
-300 -177 0
-301 -178 0
-302 -179 0
-187 -183 0
-188 -180 0
-180 -188 0
-190 -305 0
-305 -190 0
-306 -191 0
-191 -306 0
-192 -307 0
-307 -192 0
-193 -308 0
-308 -193 0
-309 -194 0
-195 -310 0
-311 -196 0
-196 -311 0
-197 -312 0
-312 -197 0
-313 -198 0
-198 -313 0
-199 -314 0
-314 -199 0
-218 -214 0
-214 -218 0
-219 -215 0
-215 -219 0
-216 -220 0
-220 -216 0
-221 -211 0
-211 -221 0
-222 -212 0
-212 -222 0
-213 -223 0
-225 -229 0
-200 -230 0
-230 -200 0
-201 -231 0
-231 -201 0
-232 -202 0
-202 -232 0
-206 -204 0
-204 -206 0
-207 -203 0
-235 -209 0
-209 -235 0
-210 -236 0
-236 -210 0
-317 -238 0
-318 -239 0
-239 -318 0
-260 -249 0
-263 -252 0
-264 -253 0
-267 -255 0
-268 -256 0
-269 -257 0
-270 -258 0
-258 -270 0
-271 -240 0
-274 -243 0
-275 -244 0
-244 -275 0
-276 -245 0
-277 -246 0
-278 -247 0
-247 -278 0
-248 -279 0
-279 -248 0
-321 -281 0
-281 -321 0
-322 -282 0
-323 -283 0
-324 -284 0
-284 -324 0
-325 -285 0
-285 -325 0
-286 -326 0
-287 -327 0
-288 -328 0
-328 -288 0
-25 -289 0
-289 -25 0
-122 -290 0
-290 -122 0
-291 -128 0
-128 -291 0
-134 -292 0
-140 -293 0
-146 -294 0
-152 -295 0
-26 -296 0
-296 -26 0
-297 -163 0
-298 -27 0
-78 -80 0
-80 -78 0
-77 -81 0
-83 -30 0
-30 -83 0
-31 -84 0
-85 -32 0
-32 -85 0
-33 -86 0
-34 -87 0
-35 -88 0
-88 -35 0
-89 -36 0
-90 -37 0
-91 -38 0
-92 -39 0
-93 -40 0
-94 -41 0
-41 -94 0
-42 -95 0
-111 -103 0
-103 -111 0
-112 -104 0
-104 -112 0
-105 -113 0
-113 -105 0
-106 -114 0
-115 -107 0
-107 -115 0
-108 -116 0
-116 -108 0
-117 -109 0
-109 -117 0
-118 -96 0
-119 -97 0
-120 -98 0
-98 -120 0
-121 -99 0
-99 -121 0
-100 -123 0
-101 -124 0
-102 -125 0
-125 -102 0
-45 -127 0
-46 -129 0
-47 -130 0
-48 -131 0
-49 -132 0
-50 -133 0
-133 -50 0
-51 -135 0
-135 -51 0
-136 -52 0
-52 -136 0
-53 -137 0
-137 -53 0
-142 -147 0
-143 -148 0
-144 -149 0
-150 -138 0
-138 -150 0
-139 -151 0
-141 -153 0
-153 -141 0
-56 -155 0
-155 -56 0
-156 -57 0
-157 -58 0
-58 -157 0
-160 -61 0
-61 -160 0
-62 -161 0
-161 -62 0
-162 -63 0
-63 -162 0
-266 -164 0
-64 -165 0
-165 -64 0
-166 -65 0
-65 -166 0
-167 -66 0
-168 -67 0
-169 -68 0
-68 -169 0
-69 -170 0
-170 -69 0
-171 -70 0
-172 -71 0
-71 -172 0
-72 -173 0
-73 -174 0
-174 -73 0
-175 -74 0
-74 -175 0
-75 -176 0
