projected/problems_b25_r0_d7_m100_s666/b25_d7_r0_s666_074.smt2
(set-logic QF_UF)
(declare-fun A0 () Bool)
(declare-fun A1 () Bool)
(declare-fun A2 () Bool)
(declare-fun A3 () Bool)
(declare-fun A4 () Bool)
(declare-fun A5 () Bool)
(declare-fun A6 () Bool)
(declare-fun A7 () Bool)
(declare-fun A8 () Bool)
(declare-fun A9 () Bool)
(declare-fun A10 () Bool)
(declare-fun A11 () Bool)
(declare-fun A12 () Bool)
(declare-fun A13 () Bool)
(declare-fun A14 () Bool)
(declare-fun A15 () Bool)
(declare-fun A16 () Bool)
(declare-fun A17 () Bool)
(declare-fun A18 () Bool)
(declare-fun A19 () Bool)
(declare-fun A21 () Bool)
(declare-fun A22 () Bool)
(declare-fun A23 () Bool)
(declare-fun A24 () Bool)
(assert (let ((.def_0 (not A21))) (let ((.def_1 (not A16))) (let ((.def_2 (and .def_1 .def_0))) (let ((.def_3 (not .def_2))) (let ((.def_4 (not A1))) (let ((.def_5 (and .def_4 A9))) (let ((.def_6 (and .def_5 .def_3))) (let ((.def_7 (= A6 A14))) (let ((.def_8 (not A13))) (let ((.def_9 (or .def_8 A18))) (let ((.def_10 (not .def_9))) (let ((.def_11 (= .def_10 .def_7))) (let ((.def_12 (not .def_11))) (let ((.def_13 (and .def_12 .def_6))) (let ((.def_14 (not .def_13))) (let ((.def_15 (or .def_4 .def_0))) (let ((.def_16 (not .def_15))) (let ((.def_17 (not A10))) (let ((.def_18 (and .def_17 A11))) (let ((.def_19 (not .def_18))) (let ((.def_20 (and .def_19 .def_16))) (let ((.def_21 (not A7))) (let ((.def_22 (or A14 .def_21))) (let ((.def_23 (not A17))) (let ((.def_24 (or .def_23 A1))) (let ((.def_25 (not .def_24))) (let ((.def_26 (or .def_25 .def_22))) (let ((.def_27 (not .def_26))) (let ((.def_28 (and .def_27 .def_20))) (let ((.def_29 (not .def_28))) (let ((.def_30 (or .def_29 .def_14))) (let ((.def_31 (not .def_30))) (let ((.def_32 (not A23))) (let ((.def_33 (or .def_32 A2))) (let ((.def_34 (not .def_33))) (let ((.def_35 (not A22))) (let ((.def_36 (and A2 .def_35))) (let ((.def_37 (not .def_36))) (let ((.def_38 (or .def_37 .def_34))) (let ((.def_39 (not .def_38))) (let ((.def_40 (not A0))) (let ((.def_41 (or .def_40 .def_17))) (let ((.def_42 (not .def_41))) (let ((.def_43 (and A19 A7))) (let ((.def_44 (not .def_43))) (let ((.def_45 (and .def_44 .def_42))) (let ((.def_46 (= .def_45 .def_39))) (let ((.def_47 (not A18))) (let ((.def_48 (and .def_47 A7))) (let ((.def_49 (not .def_48))) (let ((.def_50 (not A9))) (let ((.def_51 (not A11))) (let ((.def_52 (and .def_51 .def_50))) (let ((.def_53 (not .def_52))) (let ((.def_54 (or .def_53 .def_49))) (let ((.def_55 (not .def_54))) (let ((.def_56 (and A10 .def_40))) (let ((.def_57 (not .def_56))) (let ((.def_58 (or .def_17 A4))) (let ((.def_59 (= .def_58 .def_57))) (let ((.def_60 (not .def_59))) (let ((.def_61 (or .def_60 .def_55))) (let ((.def_62 (not .def_61))) (let ((.def_63 (= .def_62 .def_46))) (let ((.def_64 (or .def_63 .def_31))) (let ((.def_65 (not .def_64))) (let ((.def_66 (or A3 A0))) (let ((.def_67 (= A22 A19))) (let ((.def_68 (and .def_67 .def_66))) (let ((.def_69 (= A17 A3))) (let ((.def_70 (not A8))) (let ((.def_71 (and .def_47 .def_70))) (let ((.def_72 (or .def_71 .def_69))) (let ((.def_73 (or .def_72 .def_68))) (let ((.def_74 (not .def_73))) (let ((.def_75 (or .def_47 .def_47))) (let ((.def_76 (= .def_32 A16))) (let ((.def_77 (and .def_76 .def_75))) (let ((.def_78 (not .def_77))) (let ((.def_79 (and A18 A4))) (let ((.def_80 (not A15))) (let ((.def_81 (or .def_51 .def_80))) (let ((.def_82 (or .def_81 .def_79))) (let ((.def_83 (not .def_82))) (let ((.def_84 (or .def_83 .def_78))) (let ((.def_85 (not .def_84))) (let ((.def_86 (= .def_85 .def_74))) (let ((.def_87 (not .def_86))) (let ((.def_88 (not A5))) (let ((.def_89 (or .def_35 .def_88))) (let ((.def_90 (not A2))) (let ((.def_91 (or .def_50 .def_90))) (let ((.def_92 (and .def_91 .def_89))) (let ((.def_93 (not .def_92))) (let ((.def_94 (and .def_35 .def_21))) (let ((.def_95 (not .def_94))) (let ((.def_96 (or .def_4 A4))) (let ((.def_97 (or .def_96 .def_95))) (let ((.def_98 (and .def_97 .def_93))) (let ((.def_99 (not .def_98))) (let ((.def_100 (or .def_70 .def_21))) (let ((.def_101 (not .def_100))) (let ((.def_102 (not A12))) (let ((.def_103 (and .def_102 A2))) (let ((.def_104 (not .def_103))) (let ((.def_105 (and .def_104 .def_101))) (let ((.def_106 (not .def_105))) (let ((.def_107 (not A4))) (let ((.def_108 (or A6 .def_107))) (let ((.def_109 (and A23 A12))) (let ((.def_110 (and .def_109 .def_108))) (let ((.def_111 (and .def_110 .def_106))) (let ((.def_112 (or .def_111 .def_99))) (let ((.def_113 (not .def_112))) (let ((.def_114 (and .def_113 .def_87))) (let ((.def_115 (and .def_114 .def_65))) (let ((.def_116 (or A17 .def_40))) (let ((.def_117 (not .def_116))) (let ((.def_118 (or A22 A10))) (let ((.def_119 (= .def_118 .def_117))) (let ((.def_120 (not .def_119))) (let ((.def_121 (or .def_35 .def_4))) (let ((.def_122 (and .def_35 A15))) (let ((.def_123 (not .def_122))) (let ((.def_124 (or .def_123 .def_121))) (let ((.def_125 (and .def_124 .def_120))) (let ((.def_126 (and .def_8 .def_1))) (let ((.def_127 (not .def_126))) (let ((.def_128 (and .def_1 A21))) (let ((.def_129 (and .def_128 .def_127))) (let ((.def_130 (and .def_23 .def_88))) (let ((.def_131 (or A23 A2))) (let ((.def_132 (or .def_131 .def_130))) (let ((.def_133 (and .def_132 .def_129))) (let ((.def_134 (not .def_133))) (let ((.def_135 (or .def_134 .def_125))) (let ((.def_136 (or A19 A0))) (let ((.def_137 (not .def_136))) (let ((.def_138 (not A24))) (let ((.def_139 (or .def_138 A1))) (let ((.def_140 (not .def_139))) (let ((.def_141 (or .def_140 .def_137))) (let ((.def_142 (not .def_141))) (let ((.def_143 (or A0 .def_4))) (let ((.def_144 (not A14))) (let ((.def_145 (or .def_144 A11))) (let ((.def_146 (not .def_145))) (let ((.def_147 (and .def_146 .def_143))) (let ((.def_148 (not .def_147))) (let ((.def_149 (and .def_148 .def_142))) (let ((.def_150 (not .def_149))) (let ((.def_151 (and .def_8 .def_144))) (let ((.def_152 (or .def_1 .def_80))) (let ((.def_153 (or .def_152 .def_151))) (let ((.def_154 (not .def_153))) (let ((.def_155 (or .def_80 A21))) (let ((.def_156 (not .def_155))) (let ((.def_157 (and .def_50 A13))) (let ((.def_158 (and .def_157 .def_156))) (let ((.def_159 (and .def_158 .def_154))) (let ((.def_160 (not .def_159))) (let ((.def_161 (= .def_160 .def_150))) (let ((.def_162 (and .def_161 .def_135))) (let ((.def_163 (or A15 .def_107))) (let ((.def_164 (not A19))) (let ((.def_165 (and A7 .def_164))) (let ((.def_166 (and .def_165 .def_163))) (let ((.def_167 (and .def_88 .def_138))) (let ((.def_168 (not .def_167))) (let ((.def_169 (or .def_88 .def_23))) (let ((.def_170 (not .def_169))) (let ((.def_171 (or .def_170 .def_168))) (let ((.def_172 (not .def_171))) (let ((.def_173 (and .def_172 .def_166))) (let ((.def_174 (not .def_173))) (let ((.def_175 (not A3))) (let ((.def_176 (and .def_70 .def_175))) (let ((.def_177 (or .def_102 A9))) (let ((.def_178 (and .def_177 .def_176))) (let ((.def_179 (or .def_4 .def_88))) (let ((.def_180 (not .def_179))) (let ((.def_181 (not A6))) (let ((.def_182 (or .def_181 A13))) (let ((.def_183 (or .def_182 .def_180))) (let ((.def_184 (not .def_183))) (let ((.def_185 (= .def_184 .def_178))) (let ((.def_186 (not .def_185))) (let ((.def_187 (or .def_186 .def_174))) (let ((.def_188 (or .def_40 .def_47))) (let ((.def_189 (not .def_188))) (let ((.def_190 (= A9 A18))) (let ((.def_191 (not .def_190))) (let ((.def_192 (and .def_191 .def_189))) (let ((.def_193 (not .def_192))) (let ((.def_194 (and A13 .def_175))) (let ((.def_195 (not .def_194))) (let ((.def_196 (or .def_23 A3))) (let ((.def_197 (or .def_196 .def_195))) (let ((.def_198 (not .def_197))) (let ((.def_199 (or .def_198 .def_193))) (let ((.def_200 (not .def_199))) (let ((.def_201 (and A3 A18))) (let ((.def_202 (or .def_32 .def_144))) (let ((.def_203 (or .def_202 .def_201))) (let ((.def_204 (not .def_203))) (let ((.def_205 (and .def_32 A3))) (let ((.def_206 (not .def_205))) (let ((.def_207 (and .def_21 A9))) (let ((.def_208 (and .def_207 .def_206))) (let ((.def_209 (not .def_208))) (let ((.def_210 (and .def_209 .def_204))) (let ((.def_211 (or .def_210 .def_200))) (let ((.def_212 (not .def_211))) (let ((.def_213 (and .def_212 .def_187))) (let ((.def_214 (not .def_213))) (let ((.def_215 (or .def_214 .def_162))) (let ((.def_216 (= .def_215 .def_115))) (let ((.def_217 (not .def_216))) .def_217)))))))))))))))))))))))))))))))))))))))))))))))))))))))))))))))))))))))))))))))))))))))))))))))))))))))))))))))))))))))))))))))))))))))))))))))))))))))))))))))))))))))))))))))))))))))))))))))))))))))))))))))))))))))))))
(check-sat)
